proyfinal/src/viki/013/andrea/andrea-localstore/experimentInOfficeAgust.take6/worker_2/f48bdb22-be82-4f90-977e-74a7d297f1f8.als.cnf.out
Reading from standard input... Use '--help' for help.
============================[ Problem Statistics ]=============================
|                                                                             |
|  Number of variables:         87638                                         |
|  Number of clauses:          161767                                         |
|  Parse time:                   0.04 s                                       |
|                                                                             |
============================[ Search Statistics ]==============================
| Conflicts |          ORIGINAL         |          LEARNT          | Progress |
|           |    Vars  Clauses Literals |    Limit  Clauses Lit/Cl |          |
===============================================================================
|       100 |   62752   106526   266087 |    39059      100     15 | 28.396 % |
|       250 |   62752   106526   266087 |    42965      250     12 | 28.396 % |
|       475 |   62751   106482   265997 |    47262      474     34 | 28.397 % |
|       812 |   62751   106482   265997 |    51988      811     42 | 28.397 % |
|      1318 |   62743   106450   265909 |    57187     1156     47 | 28.407 % |
|      2077 |   62743   106450   265909 |    62905     1915     53 | 28.407 % |
|      3216 |   62743   106450   265909 |    69196     3054     66 | 28.407 % |
|      4924 |   62743   106450   265909 |    76115     4762     65 | 28.407 % |
|      7486 |   62743   106450   265909 |    83727     7324     74 | 28.407 % |
|     11330 |   53481    78744   197387 |    92100    11109     76 | 38.975 % |
|     17096 |   53481    78744   197387 |   101310    16875     74 | 38.975 % |
===============================================================================
restarts              : 63
conflicts             : 19022          (7662 /sec)
decisions             : 55854          (0.00 % random) (22499 /sec)
propagations          : 23690991       (9543253 /sec)
conflict literals     : 1379953        (50.99 % deleted)
Memory used           : 30.30 MB
CPU time              : 2.48249 s

UNSATISFIABLE
